
Gurobi 12.0.3 (linux64) logging started Thu Aug 21 02:56:48 2025

Set parameter LogFile to value "logs/instance-08.txt"
Gurobi Optimizer version 12.0.3 build v12.0.3rc0 (linux64 - "Ubuntu 24.04.3 LTS")

CPU model: Intel(R) Core(TM) i5-8250U CPU @ 1.60GHz, instruction set [SSE2|AVX|AVX2]
Thread count: 4 physical cores, 8 logical processors, using up to 8 threads

Non-default parameters:
TimeLimit  900

Optimize a model with 14950 rows, 5050 columns and 36650 nonzeros
Model fingerprint: 0x1aa2ee79
Variable types: 0 continuous, 5050 integer (5050 binary)
Coefficient statistics:
  Matrix range     [1e+00, 1e+00]
  Objective range  [1e+00, 1e+01]
  Bounds range     [1e+00, 1e+00]
  RHS range        [1e+00, 1e+00]
Found heuristic solution: objective 979.0000000
Presolve removed 7672 rows and 222 columns
Presolve time: 0.20s
Presolved: 7278 rows, 4828 columns, 18634 nonzeros
Variable types: 0 continuous, 4828 integer (4828 binary)

Root relaxation: objective 6.817000e+03, 5001 iterations, 0.69 seconds (0.31 work units)

    Nodes    |    Current Node    |     Objective Bounds      |     Work
 Expl Unexpl |  Obj  Depth IntInf | Incumbent    BestBd   Gap | It/Node Time

     0     0 6817.00000    0 2550  979.00000 6817.00000   596%     -    1s
H    0     0                    1757.0000000 6817.00000   288%     -    1s
     0     0 5829.00000    0 2547 1757.00000 5829.00000   232%     -    3s
H    0     0                    1773.0000000 4721.00000   166%     -    6s
     0     0 4699.50000    0 2814 1773.00000 4699.50000   165%     -    6s
H    0     0                    1825.0000000 4541.00000   149%     -    7s
     0     0 4512.50000    0 2959 1825.00000 4512.50000   147%     -    7s
     0     0 4510.75000    0 2984 1825.00000 4510.75000   147%     -    7s
     0     0 4510.75000    0 3081 1825.00000 4510.75000   147%     -    8s
     0     0 4510.75000    0 3037 1825.00000 4510.75000   147%     -    8s
     0     0 4510.75000    0 3035 1825.00000 4510.75000   147%     -    8s
     0     0 4510.75000    0 3032 1825.00000 4510.75000   147%     -    8s
H    0     0                    1897.0000000 4072.29198   115%     -   21s
H    0     0                    1950.0000000 4072.29198   109%     -   21s
     0     0 3981.03125    0 3095 1950.00000 3981.03125   104%     -   22s
H    0     0                    1994.0000000 3467.74727  73.9%     -   48s
H    0     0                    2030.0000000 3467.74727  70.8%     -   48s
H    0     0                    2064.0000000 3467.74727  68.0%     -   48s
H    0     0                    2087.0000000 3467.74727  66.2%     -   48s
H    0     0                    2149.0000000 3467.74727  61.4%     -   48s
H    0     0                    2159.0000000 3467.74727  60.6%     -   48s
H    0     0                    2160.0000000 3467.74727  60.5%     -   48s
H    0     0                    2181.0000000 3467.74727  59.0%     -   48s
H    0     0                    2210.0000000 3467.74727  56.9%     -   48s
H    0     0                    2216.0000000 3467.74727  56.5%     -   48s
H    0     0                    2245.0000000 3467.74727  54.5%     -   48s
     0     0 3467.74727    0 3679 2245.00000 3467.74727  54.5%     -   48s
H    0     0                    2247.0000000 3174.12304  41.3%     -   88s
H    0     0                    2250.0000000 3174.12304  41.1%     -   88s
     0     0 3174.12304    0 4499 2250.00000 3174.12304  41.1%     -   90s
     0     0 3054.44081    0 4593 2250.00000 3054.44081  35.8%     -  129s
     0     0 3015.27485    0 4606 2250.00000 3015.27485  34.0%     -  154s
     0     0 2982.68466    0 4637 2250.00000 2982.68466  32.6%     -  176s
     0     0 2970.30321    0 4648 2250.00000 2970.30321  32.0%     -  190s
H    0     0                    2260.0000000 2965.45822  31.2%     -  197s
     0     0 2965.45822    0 4648 2260.00000 2965.45822  31.2%     -  198s
     0     0 2963.21338    0 4649 2260.00000 2963.21338  31.1%     -  202s
H    0     0                    2265.0000000 2868.95671  26.7%     -  250s
     0     0 2868.95671    0 4687 2265.00000 2868.95671  26.7%     -  250s
     0     0 2821.53904    0 4696 2265.00000 2821.53904  24.6%     -  286s
     0     0 2798.71976    0 4702 2265.00000 2798.71976  23.6%     -  312s
     0     0 2783.91322    0 4707 2265.00000 2783.91322  22.9%     -  338s
     0     0 2772.41528    0 4721 2265.00000 2772.41528  22.4%     -  359s
     0     0 2764.36017    0 4736 2265.00000 2764.36017  22.0%     -  380s
     0     0 2758.47469    0 4740 2265.00000 2758.47469  21.8%     -  401s
     0     0 2754.40032    0 4747 2265.00000 2754.40032  21.6%     -  417s
     0     0 2739.68960    0 4732 2265.00000 2739.68960  21.0%     -  452s
     0     0 2728.21768    0 4741 2265.00000 2728.21768  20.5%     -  481s
     0     0 2722.47270    0 4758 2265.00000 2722.47270  20.2%     -  505s
     0     0 2709.42770    0 4750 2265.00000 2709.42770  19.6%     -  546s
     0     0 2709.42770    0 4743 2265.00000 2709.42770  19.6%     -  547s
     0     2 2709.42770    0 4741 2265.00000 2709.42770  19.6%     -  724s
     1     3 2707.18038    1 4713 2265.00000 2709.41851  19.6%  5824  735s
     2     6 2638.02980    1 4584 2265.00000 2707.17887  19.5%  6244  780s
     5     8 2588.89489    3 4484 2265.00000 2678.27866  18.2% 11968  832s
     7    12 2629.44984    4 4674 2265.00000 2678.26878  18.2% 15856  887s

Cutting planes:
  Gomory: 1
  Dual implied bound: 19
  MIR: 13
  Zero half: 112
  RLT: 4678
  BQP: 4531

Explored 11 nodes (631338 simplex iterations) in 900.01 seconds (775.33 work units)
Thread count was 8 (of 8 available processors)

Solution count 10: 2265 2260 2250 ... 2159

Time limit reached
Best objective 2.265000000000e+03, best bound 2.678000000000e+03, gap 18.2340%

Gurobi 12.0.3 (linux64) logging started Thu Aug 21 10:44:18 2025

Set parameter LogFile to value "logs/instance-08.txt"
Gurobi Optimizer version 12.0.3 build v12.0.3rc0 (linux64 - "Ubuntu 24.04.3 LTS")

CPU model: Intel(R) Core(TM) i5-8250U CPU @ 1.60GHz, instruction set [SSE2|AVX|AVX2]
Thread count: 4 physical cores, 8 logical processors, using up to 8 threads

Non-default parameters:
TimeLimit  600

Optimize a model with 14950 rows, 5050 columns and 36650 nonzeros
Model fingerprint: 0x1aa2ee79
Variable types: 0 continuous, 5050 integer (5050 binary)
Coefficient statistics:
  Matrix range     [1e+00, 1e+00]
  Objective range  [1e+00, 1e+01]
  Bounds range     [1e+00, 1e+00]
  RHS range        [1e+00, 1e+00]
Found heuristic solution: objective 979.0000000
Presolve removed 7672 rows and 222 columns
Presolve time: 0.13s
Presolved: 7278 rows, 4828 columns, 18634 nonzeros
Variable types: 0 continuous, 4828 integer (4828 binary)

Root relaxation: objective 6.817000e+03, 5001 iterations, 0.32 seconds (0.31 work units)

    Nodes    |    Current Node    |     Objective Bounds      |     Work
 Expl Unexpl |  Obj  Depth IntInf | Incumbent    BestBd   Gap | It/Node Time

     0     0 6817.00000    0 2550  979.00000 6817.00000   596%     -    0s
H    0     0                    1757.0000000 6817.00000   288%     -    0s
     0     0 5829.00000    0 2547 1757.00000 5829.00000   232%     -    3s
H    0     0                    1773.0000000 4721.00000   166%     -    6s
     0     0 4699.50000    0 2814 1773.00000 4699.50000   165%     -    6s
H    0     0                    1825.0000000 4541.00000   149%     -    7s
     0     0 4512.50000    0 2959 1825.00000 4512.50000   147%     -    8s
     0     0 4510.75000    0 2984 1825.00000 4510.75000   147%     -    8s
     0     0 4510.75000    0 3081 1825.00000 4510.75000   147%     -    8s
     0     0 4510.75000    0 3037 1825.00000 4510.75000   147%     -    8s
     0     0 4510.75000    0 3035 1825.00000 4510.75000   147%     -    8s
     0     0 4510.75000    0 3032 1825.00000 4510.75000   147%     -    9s
H    0     0                    1897.0000000 4072.29198   115%     -   22s
H    0     0                    1950.0000000 4072.29198   109%     -   22s
     0     0 3981.03125    0 3095 1950.00000 3981.03125   104%     -   22s
H    0     0                    1994.0000000 3467.74727  73.9%     -   50s
H    0     0                    2030.0000000 3467.74727  70.8%     -   50s
H    0     0                    2064.0000000 3467.74727  68.0%     -   50s
H    0     0                    2087.0000000 3467.74727  66.2%     -   50s
H    0     0                    2149.0000000 3467.74727  61.4%     -   50s
H    0     0                    2159.0000000 3467.74727  60.6%     -   50s
H    0     0                    2160.0000000 3467.74727  60.5%     -   50s
H    0     0                    2181.0000000 3467.74727  59.0%     -   50s
H    0     0                    2210.0000000 3467.74727  56.9%     -   50s
H    0     0                    2216.0000000 3467.74727  56.5%     -   50s
H    0     0                    2245.0000000 3467.74727  54.5%     -   50s
     0     0 3467.74727    0 3679 2245.00000 3467.74727  54.5%     -   52s
H    0     0                    2247.0000000 3174.12304  41.3%     -   90s
H    0     0                    2250.0000000 3174.12304  41.1%     -   90s
     0     0 3174.12304    0 4499 2250.00000 3174.12304  41.1%     -   92s
     0     0 3054.44081    0 4593 2250.00000 3054.44081  35.8%     -  132s
     0     0 3015.27485    0 4606 2250.00000 3015.27485  34.0%     -  156s
     0     0 2982.68466    0 4637 2250.00000 2982.68466  32.6%     -  179s
     0     0 2970.30321    0 4648 2250.00000 2970.30321  32.0%     -  194s
H    0     0                    2260.0000000 2965.45822  31.2%     -  202s
     0     0 2965.45822    0 4648 2260.00000 2965.45822  31.2%     -  203s
     0     0 2963.21338    0 4649 2260.00000 2963.21338  31.1%     -  207s
H    0     0                    2265.0000000 2868.95671  26.7%     -  258s
     0     0 2868.95671    0 4687 2265.00000 2868.95671  26.7%     -  258s
     0     0 2821.53904    0 4696 2265.00000 2821.53904  24.6%     -  293s
     0     0 2798.71976    0 4702 2265.00000 2798.71976  23.6%     -  321s
     0     0 2783.91322    0 4707 2265.00000 2783.91322  22.9%     -  347s
     0     0 2772.41528    0 4721 2265.00000 2772.41528  22.4%     -  369s
     0     0 2764.36017    0 4736 2265.00000 2764.36017  22.0%     -  390s
     0     0 2758.47469    0 4740 2265.00000 2758.47469  21.8%     -  412s
     0     0 2754.40032    0 4747 2265.00000 2754.40032  21.6%     -  428s
     0     0 2739.68960    0 4732 2265.00000 2739.68960  21.0%     -  466s
     0     0 2728.21768    0 4741 2265.00000 2728.21768  20.5%     -  498s
     0     0 2722.47270    0 4758 2265.00000 2722.47270  20.2%     -  521s
     0     0 2709.42770    0 4750 2265.00000 2709.42770  19.6%     -  562s
     0     0 2709.42770    0 4743 2265.00000 2709.42770  19.6%     -  563s

Cutting planes:
  Gomory: 1
  Dual implied bound: 2
  MIR: 10
  Zero half: 54
  RLT: 2334
  BQP: 1497

Explored 1 nodes (441263 simplex iterations) in 600.00 seconds (393.57 work units)
Thread count was 8 (of 8 available processors)

Solution count 10: 2265 2260 2250 ... 2159

Time limit reached
Best objective 2.265000000000e+03, best bound 2.709000000000e+03, gap 19.6026%
